NAME : Random_ATSP_Instance
TYPE : ATSP
DIMENSION : 8
EDGE_WEIGHT_TYPE : EXPLICIT
EDGE_WEIGHT_FORMAT : FULL_MATRIX
NODE_COORD_TYPE : NO_COORDS
DISPLAY_DATA_TYPE: TWOD_DISPLAY
EDGE_WEIGHT_SECTION
99000 99000 99000 99000 99000 99000 99000 99000
99000 99000 19 90 99000 36 99000 99000
99000 99000 99000 99000 75 99000 99000 99000
99000 99000 99000 99000 99000 2 99000 99000
99000 99000 99000 26 99000 54 99000 71
99000 99000 99000 99000 99000 99000 14 99000
21 99000 99000 99000 31 99000 99000 99000
99000 99000 99000 99000 97 99000 99000 99000
EOF
